% From JaCoP's nonogramRepository/data075.nin
 rows = 15;
 row_rule_len = 4;
 row_rules = array2d(1..rows, 1..row_rule_len, 
[
 0,1,3,3,
 0,2,2,2,
 3,2,1,1,
 4,1,2,1,
 5,1,3,1,
 0,0,5,5,
 0,0,4,4,
 3,2,1,3,
 3,2,1,3,
 0,0,2,2,
 2,3,3,3,
 0,1,1,1,
 1,4,1,4,
 1,4,2,1,
 0,0,3,3
]);

 cols = 15;
 col_rule_len = 5;
 col_rules = array2d(1..cols, 1..col_rule_len, 
[
 0,0,0,0,15,
 0,0,0,10,1,
 0,0,7,1,1,
 0,0,4,1,1,
 0,0,2,1,1,
 0,0,1,1,2,
 0,0,3,2,1,
 0,0,5,2,1,
 0,0,0,1,1,
 0,0,0,3,3,
 0,3,2,1,1,
 0,0,0,3,2,
 1,4,1,1,1,
 0,2,6,1,1,
 0,0,0,0,15
]);

